[TITLE]
[OPTIONS]
FLOW_UNITS             LPS
INFILTRATION           HORTON
FLOW_ROUTING           DYNWAVE
LINK_OFFSETS           DEPTH
FORCE_MAIN_EQUATION    H-W

IGNORE_RAINFALL        NO
IGNORE_SNOWMELT        NO
IGNORE_GROUNDWATER     NO
IGNORE_RDII            NO
IGNORE_ROUTING         NO
IGNORE_QUALITY         YES

ALLOW_PONDING          NO
SKIP_STEADY_STATE      NO
SYS_FLOW_TOL           5
LAT_FLOW_TOL           5

START_DATE             01/01/1998
START_TIME             00:00
END_DATE               01/01/1998
END_TIME               15:00
REPORT_START_DATE      01/01/1998
REPORT_START_TIME      00:00
SWEEP_START            01/01
SWEEP_END              01/01

DRY_DAYS               5
REPORT_STEP            00:05:00
WET_STEP               00:01:00
DRY_STEP               01:00:00

ROUTING_STEP           30
LENGTHENING_STEP       0
VARIABLE_STEP          0.75
MINIMUM_STEP           0.5

INERTIAL_DAMPING       PARTIAL
NORMAL_FLOW_LIMITED    BOTH
MIN_SURFAREA           1.16741960245228
MIN_SLOPE              0.0
MAX_TRIALS             8
HEAD_TOLERANCE         0.005
THREADS                1


[REPORT]
INPUT                  NO
CONTINUITY             YES
FLOWSTATS              YES
CONTROLS               NO
SUBCATCHMENTS          ALL
NODES                  ALL
LINKS                  ALL


[MAP]
DIMENSIONS  -57.431  -47.164  2900.091  3107.999
Units  None


[EVAPORATION]
CONSTANT  0
DRY_ONLY  NO


[JUNCTIONS]
;;Name  Elevation  MaxDepth  InitDepth  SurDepth  Ponding
N1         304.800     0.910     0.000     0.000     0.000
N2         303.270     0.910     0.000     0.000     0.000
N3         303.270     0.910     0.000     0.000     0.000
N4         301.750     0.910     0.000     0.000     0.000
N5         300.830     0.910     0.000     0.000     0.000
N6         300.220     0.910     0.000     0.000     0.000
N7         298.700     0.910     0.000     0.000     0.000
N8         307.840     0.910     0.000     0.000     0.000
N9         306.320     0.910     0.000     0.000     0.000
N10        301.750     1.420     0.000     0.000     0.000
N11        300.830     1.410     0.000     0.000     0.000
N12        301.750     0.910     0.000     0.000     0.000
N13        299.920     0.910     0.000     0.000     0.000


[OUTFALLS]
;;Name  Elevation  Type  //  Gated  RouteTo
N14        297.180    FREE    NO        


[COORDINATES]
;;Name  X-Coord  Y-Coord
N1         1232.04   2926.08
N2         1251.28   2117.56
N3          712.27   1328.29
N4          962.52   1309.04
N5          981.78    988.20
N6         1469.46   1013.86
N7         1905.80    654.52
N8         2367.81   2053.39
N9         1815.96   2008.47
N10        1501.54   1860.88
N11        1347.54   1437.37
N12        1976.39   1212.78
N13        1642.71    924.03
N14        2021.31    154.00


[DWF]
;;Node           Constituent      Baseline   Patterns  


[INFLOWS]
;;Node           Constituent      Time Series      Type     Mfactor  Sfactor  Baseline Pattern


[CONDUITS]
;;Name                          Upstream  Downstream  Length  Roughness  Up-offset Down-offset  Init_flow Max_flow
L1                              N1        N2          221.92     0.015     0.000     0.000      0.00      0.00
L2                              N8        N9          160.96     0.013     0.000     0.000      0.00      0.00
L3                              N9        N10         160.96     0.020     0.000     0.498      0.00      0.00
L4                              N2        N10         221.92     0.022     0.000     0.305      0.00      0.00
L5                              N10       N11         191.44     0.025     0.305     0.305      0.00      0.00
L6                              N11       N6          191.44     0.018     0.000     0.000      0.00      0.00
L7                              N7        N14         221.92     0.016     0.000     0.000      0.00      0.00
L8                              N3        N4          221.92     0.011     0.000     0.000      0.00      0.00
L9                              N4        N5          221.92     0.023     0.000     0.000      0.00      0.00
L10                             N5        N6          221.92     0.027     0.000     0.000      0.00      0.00
L11                             N12       N13         221.92     0.029     0.000     0.000      0.00      0.00
L12                             N6        N13         130.48     0.020     0.000     0.000      0.00      0.00
L13                             N13       N7          221.92     0.015     0.000     0.000      0.00      0.00


[XSECTIONS]
;;Name                          Shape         Geom1      Geom2      Geom3      Geom4      Barrels      (Culvert)
L1                              CIRCULAR      0.36         0         0         0         1
L2                              CIRCULAR      0.20         0         0         0         1
L3                              CIRCULAR      0.20         0         0         0         1
L4                              CIRCULAR      0.36         0         0         0         1
L5                              CIRCULAR      0.51         0         0         0         1
L6                              CIRCULAR      0.51         0         0         0         1
L7                              CIRCULAR      0.51         0         0         0         1
L8                              CIRCULAR      0.36         0         0         0         1
L9                              CIRCULAR      0.36         0         0         0         1
L10                             CIRCULAR      0.36         0         0         0         1
L11                             CIRCULAR      0.20         0         0         0         1
L12                             CIRCULAR      0.51         0         0         0         1
L13                             CIRCULAR      0.51         0         0         0         1


[VERTICES]
;;Link           X-Coord            Y-Coord
L7  2034.138  417.094


[SUBCATCHMENTS]
;;Name       RainGage  Outlet     Area    %Imperv    Width    %Slope    CurbLen  (SnowPack)
S1  28_RG1  N1     4.047     50.00    70.000      8.00         0  
S2  28_RG1  N2     4.047     60.00   150.000      2.00         0  
S3  28_RG1  N3     2.023     70.00   180.000      5.00         0  
S4  28_RG1  N11     2.023     40.00   110.000      3.00         0  
S5  28_RG1  N5     6.070     20.00   150.000      3.00         0  
S6  28_RG1  N12     4.856     80.00   130.000      4.00         0  
S7  28_RG1  N8     1.619     20.00    90.000      2.00         0  
S8  28_RG1  N14     4.047     30.00   200.000      6.00         0  


[SUBAREAS]
;;Subcatchment   N-Imperv   N-Perv  S-Imperv  S-Perv  PctZero  RouteTo  (PctRouted)
S1     0.030      0.20      0.50      3.00     70.00  OUTLET  
S2     0.030      0.60      1.00      5.00     20.00  OUTLET  
S3     0.020      0.40      2.00      6.00     50.00  OUTLET  
S4     0.030      0.50      3.00      9.00     80.00  OUTLET  
S5     0.020      0.70      4.00      9.00     60.00  OUTLET  
S6     0.030      0.30      1.50      8.00     30.00  OUTLET  
S7     0.030      0.40      0.50      4.00     40.00  OUTLET  
S8     0.020      0.30      0.70      7.00     20.00  OUTLET  


[INFILTRATION]
;;;;Subcatchment   MaxRate    MinRate    Decay      DryTime    MaxInfil 
S1      28.0       5.0       2.8       0.0       0.0
S2      28.0       7.0       3.0       0.0       0.0
S3      30.0       6.0       4.0       0.0       0.0
S4      40.0       9.0       6.0       0.0       0.0
S5      60.0       8.0       5.0       0.0       0.0
S6      70.0       4.0       6.0       0.0       0.0
S7      50.0       3.0       4.5       0.0       0.0
S8      72.0       2.0       3.5       0.0       0.0


[Polygons]
;;Subcatchment   X-Coord            Y-Coord
S1  1199.949  2104.723
S1  1065.197  1905.802
S1  83.418  1931.469
S1  77.002  2598.822
S1  141.171  2804.16
S1  352.925  2964.582
S1  1219.2  2958.163
S1  1199.949  2104.723
S2  2316.48  2945.331
S2  2348.563  2053.389
S2  1803.133  2040.557
S2  1501.542  1918.637
S2  1276.95  2194.56
S2  1257.702  2932.496
S2  2316.48  2945.331
S3  718.685  1835.216
S3  731.52  1321.869
S3  924.026  1296.202
S3  911.19  1033.11
S3  96.253  1039.53
S3  89.837  1828.8
S3  718.685  1835.216
S4  1262.417  2042.725
S4  1266.958  2042.034
S4  1270.534  2040.557
S4  1360.371  1969.971
S4  1469.456  1848.051
S4  1341.12  1604.211
S4  1328.285  1353.955
S4  1386.038  1129.363
S4  1219.2  1045.946
S4  1013.862  1026.694
S4  988.195  1078.029
S4  956.109  1572.125
S4  789.27  1578.544
S4  789.27  1848.051
S4  1001.027  1848.051
S4  1129.363  1899.386
S4  1257.702  2046.973
S4  1262.417  2042.725
S5  782.854  975.36
S5  1495.123  956.109
S5  1591.376  866.275
S5  1751.798  737.936
S5  1969.971  481.264
S5  2014.89  295.174
S5  2008.47  154.003
S5  397.843  147.587
S5  295.174  102.669
S5  96.253  237.424
S5  96.253  949.693
S5  782.854  975.36
S6  2759.242  1264.118
S6  2406.317  1276.95
S6  1963.555  1251.283
S6  1803.133  1110.115
S6  1623.462  981.776
S6  1411.706  1289.786
S6  1392.454  1527.21
S6  1488.707  1758.214
S6  1636.294  1918.637
S6  1841.635  2002.054
S6  2733.574  1989.222
S6  2759.242  1264.118
S7  2662.989  2938.915
S7  2746.41  2861.91
S7  2746.41  2630.906
S7  2759.242  2066.224
S7  2374.23  2072.64
S7  2354.982  2938.915
S7  2662.989  2938.915
S8  2765.658  628.851
S8  2759.242  237.424
S8  2592.403  102.669
S8  2265.146  96.253
S8  2258.73  147.587
S8  2085.475  154.003
S8  2085.475  179.67
S8  2079.056  359.344
S8  1995.638  558.266
S8  1873.718  725.104
S8  1706.88  936.858
S8  2008.47  1187.117
S8  2701.491  1212.784
S8  2765.658  628.851


[TIMESERIES]
;;Name       Time       Value
;;---------- ---------- ----------
RainSeries-1  0:00  0.00
RainSeries-1  0:01  12.00
RainSeries-1  0:02  0.24
RainSeries-1  0:03  0.24
RainSeries-1  0:04  0.24
RainSeries-1  0:05  0.24
RainSeries-1  0:06  0.24
RainSeries-1  0:07  0.24
RainSeries-1  0:08  0.24
RainSeries-1  0:09  0.24
RainSeries-1  0:10  0.24
RainSeries-1  0:11  0.24
RainSeries-1  0:12  0.24
RainSeries-1  0:13  0.24
RainSeries-1  0:14  0.24
RainSeries-1  0:15  0.24
RainSeries-1  0:16  0.24
RainSeries-1  0:17  0.24
RainSeries-1  0:18  0.24
RainSeries-1  0:19  0.24
RainSeries-1  0:20  0.24
RainSeries-1  0:21  0.24
RainSeries-1  0:22  0.24
RainSeries-1  0:23  0.24
RainSeries-1  0:24  0.24
RainSeries-1  0:25  0.24
RainSeries-1  0:26  0.24
RainSeries-1  0:27  0.24
RainSeries-1  0:28  0.24
RainSeries-1  0:29  0.24
RainSeries-1  0:30  0.24
RainSeries-1  0:31  0.24
RainSeries-1  0:32  0.24
RainSeries-1  0:33  0.24
RainSeries-1  0:34  0.24
RainSeries-1  0:35  0.24
RainSeries-1  0:36  0.24
RainSeries-1  0:37  0.24
RainSeries-1  0:38  0.24
RainSeries-1  0:39  0.24
RainSeries-1  0:40  0.24
RainSeries-1  0:41  0.24
RainSeries-1  0:42  0.24
RainSeries-1  0:43  0.24
RainSeries-1  0:44  0.24
RainSeries-1  0:45  0.24
RainSeries-1  0:46  0.24
RainSeries-1  0:47  0.24
RainSeries-1  0:48  0.24
RainSeries-1  0:49  0.24
RainSeries-1  0:50  0.24
RainSeries-1  0:51  0.24
RainSeries-1  0:52  0.60
RainSeries-1  0:53  0.60
RainSeries-1  0:54  0.60
RainSeries-1  0:55  0.60
RainSeries-1  0:56  0.60
RainSeries-1  0:57  0.60
RainSeries-1  0:58  0.60
RainSeries-1  0:59  0.60
RainSeries-1  1:00  0.60
RainSeries-1  1:01  0.60
RainSeries-1  1:02  0.60
RainSeries-1  1:03  0.60
RainSeries-1  1:04  0.60
RainSeries-1  1:05  0.60
RainSeries-1  1:06  0.60
RainSeries-1  1:07  0.60
RainSeries-1  1:08  0.60
RainSeries-1  1:09  0.60
RainSeries-1  1:10  0.60
RainSeries-1  1:11  12.60
RainSeries-1  1:12  24.00
RainSeries-1  1:13  12.00
RainSeries-1  1:14  36.00
RainSeries-1  1:15  1.50
RainSeries-1  1:16  1.50
RainSeries-1  1:17  1.50
RainSeries-1  1:18  1.50
RainSeries-1  1:19  1.50
RainSeries-1  1:20  1.50
RainSeries-1  1:21  1.50
RainSeries-1  1:22  1.50
RainSeries-1  1:23  36.00
RainSeries-1  1:24  48.00
RainSeries-1  1:25  12.00
RainSeries-1  1:26  12.00
RainSeries-1  1:27  3.00
RainSeries-1  1:28  3.00
RainSeries-1  1:29  3.00
RainSeries-1  1:30  3.00
RainSeries-1  1:31  1.71
RainSeries-1  1:32  1.71
RainSeries-1  1:33  1.71
RainSeries-1  1:34  1.71
RainSeries-1  1:35  1.71
RainSeries-1  1:36  1.71
RainSeries-1  1:37  1.71
RainSeries-1  1:38  6.00
RainSeries-1  1:39  6.00
RainSeries-1  1:40  6.00
RainSeries-1  1:41  30.00
RainSeries-1  1:42  84.00
RainSeries-1  1:43  108.00
RainSeries-1  1:44  108.00
RainSeries-1  1:45  96.00
RainSeries-1  1:46  60.00
RainSeries-1  1:47  24.00
RainSeries-1  1:48  12.00
RainSeries-1  1:49  12.00
RainSeries-1  1:50  4.00
RainSeries-1  1:51  4.00
RainSeries-1  1:52  4.00
RainSeries-1  1:53  4.00
RainSeries-1  1:54  4.00
RainSeries-1  1:55  4.00
RainSeries-1  1:56  2.40
RainSeries-1  1:57  2.40
RainSeries-1  1:58  2.40
RainSeries-1  1:59  2.40
RainSeries-1  2:00  2.40
RainSeries-1  2:01  0.71
RainSeries-1  2:02  0.71
RainSeries-1  2:03  0.71
RainSeries-1  2:04  0.71
RainSeries-1  2:05  0.71
RainSeries-1  2:06  0.71
RainSeries-1  2:07  0.71
RainSeries-1  2:08  0.71
RainSeries-1  2:09  0.71
RainSeries-1  2:10  0.71
RainSeries-1  2:11  0.71
RainSeries-1  2:12  0.71
RainSeries-1  2:13  0.71
RainSeries-1  2:14  0.71
RainSeries-1  2:15  0.71
RainSeries-1  2:16  0.71
RainSeries-1  2:17  0.71
RainSeries-1  2:18  4.00
RainSeries-1  2:19  4.00
RainSeries-1  2:20  16.00
RainSeries-1  2:21  72.00
RainSeries-1  2:22  24.00
RainSeries-1  2:23  12.00
RainSeries-1  2:24  12.00
RainSeries-1  2:25  6.00
RainSeries-1  2:26  6.00
RainSeries-1  2:27  3.00
RainSeries-1  2:28  3.00
RainSeries-1  2:29  3.00
RainSeries-1  2:30  3.00
RainSeries-1  2:31  0.44
RainSeries-1  2:32  0.44
RainSeries-1  2:33  0.44
RainSeries-1  2:34  0.44
RainSeries-1  2:35  0.44
RainSeries-1  2:36  0.44
RainSeries-1  2:37  0.44
RainSeries-1  2:38  0.44
RainSeries-1  2:39  0.44
RainSeries-1  2:40  0.44
RainSeries-1  2:41  0.44
RainSeries-1  2:42  0.44
RainSeries-1  2:43  0.44
RainSeries-1  2:44  0.44
RainSeries-1  2:45  0.44
RainSeries-1  2:46  0.44
RainSeries-1  2:47  0.44
RainSeries-1  2:48  0.44
RainSeries-1  2:49  0.44
RainSeries-1  2:50  0.44
RainSeries-1  2:51  0.44
RainSeries-1  2:52  0.44
RainSeries-1  2:53  0.44
RainSeries-1  2:54  0.44
RainSeries-1  2:55  0.44
RainSeries-1  2:56  0.44
RainSeries-1  2:57  0.44
RainSeries-1  2:58  1.33
RainSeries-1  2:59  1.33
RainSeries-1  3:00  1.33
RainSeries-1  3:01  1.33
RainSeries-1  3:02  1.33
RainSeries-1  3:03  1.33
RainSeries-1  3:04  1.33
RainSeries-1  3:05  1.33
RainSeries-1  3:06  1.33
RainSeries-1  3:07  12.00
RainSeries-1  3:08  6.00
RainSeries-1  3:09  6.00
RainSeries-1  3:10  6.00
RainSeries-1  3:11  6.00
RainSeries-1  3:12  4.00
RainSeries-1  3:13  4.00
RainSeries-1  3:14  4.00
RainSeries-1  3:15  1.00
RainSeries-1  3:16  1.00
RainSeries-1  3:17  1.00
RainSeries-1  3:18  1.00
RainSeries-1  3:19  1.00
RainSeries-1  3:20  1.00
RainSeries-1  3:21  1.00
RainSeries-1  3:22  1.00
RainSeries-1  3:23  1.00
RainSeries-1  3:24  1.00
RainSeries-1  3:25  1.00
RainSeries-1  3:26  13.00
RainSeries-1  3:27  24.00
RainSeries-1  3:28  4.00
RainSeries-1  3:29  4.00
RainSeries-1  3:30  4.00
;;
RainSeries-2  0:00  0.00
RainSeries-2  0:01  12.00
RainSeries-2  0:02  6.00
RainSeries-2  0:03  6.00
RainSeries-2  0:04  6.00
RainSeries-2  0:05  6.00
RainSeries-2  0:06  4.00
RainSeries-2  0:07  4.00
RainSeries-2  0:08  4.00
RainSeries-2  0:09  2.40
RainSeries-2  0:10  2.40
RainSeries-2  0:11  2.40
RainSeries-2  0:12  2.40
RainSeries-2  0:13  2.40
RainSeries-2  0:14  36.00
RainSeries-2  0:15  12.00
RainSeries-2  0:16  6.00
RainSeries-2  0:17  6.00
RainSeries-2  0:18  2.40
RainSeries-2  0:19  2.40
RainSeries-2  0:20  2.40
RainSeries-2  0:21  2.40
RainSeries-2  0:22  2.40
RainSeries-2  0:23  12.00
RainSeries-2  0:24  24.00
RainSeries-2  0:25  24.00
RainSeries-2  0:26  24.00
RainSeries-2  0:27  24.00
RainSeries-2  0:28  12.00
RainSeries-2  0:29  24.00
RainSeries-2  0:30  24.00
RainSeries-2  0:31  12.00
RainSeries-2  0:32  12.00
RainSeries-2  0:33  6.00
RainSeries-2  0:34  6.00
RainSeries-2  0:35  4.00
RainSeries-2  0:36  4.00
RainSeries-2  0:37  4.00
RainSeries-2  0:38  4.00
RainSeries-2  0:39  4.00
RainSeries-2  0:40  4.00
RainSeries-2  0:41  6.00
RainSeries-2  0:42  6.00
RainSeries-2  0:43  1.50
RainSeries-2  0:44  1.50
RainSeries-2  0:45  1.50
RainSeries-2  0:46  1.50
RainSeries-2  0:47  1.50
RainSeries-2  0:48  1.50
RainSeries-2  0:49  1.50
RainSeries-2  0:50  1.50
;;
RainSeries-3  0:00  0.00
RainSeries-3  0:01  12.00
RainSeries-3  0:02  1.00
RainSeries-3  0:03  1.00
RainSeries-3  0:04  1.00
RainSeries-3  0:05  1.00
RainSeries-3  0:06  1.00
RainSeries-3  0:07  1.00
RainSeries-3  0:08  1.00
RainSeries-3  0:09  1.00
RainSeries-3  0:10  1.00
RainSeries-3  0:11  1.00
RainSeries-3  0:12  1.00
RainSeries-3  0:13  1.00
RainSeries-3  1:17  0.00
RainSeries-3  1:18  12.00
RainSeries-3  1:19  0.92
RainSeries-3  1:20  0.92
RainSeries-3  1:21  0.92
RainSeries-3  1:22  0.92
RainSeries-3  1:23  0.92
RainSeries-3  1:24  0.92
RainSeries-3  1:25  0.92
RainSeries-3  1:26  0.92
RainSeries-3  1:27  0.92
RainSeries-3  1:28  0.92
RainSeries-3  1:29  0.92
RainSeries-3  1:30  0.92
RainSeries-3  1:31  0.92
RainSeries-3  1:32  4.00
RainSeries-3  1:33  4.00
RainSeries-3  1:34  4.00
RainSeries-3  1:35  1.00
RainSeries-3  1:36  1.00
RainSeries-3  1:37  1.00
RainSeries-3  1:38  1.00
RainSeries-3  1:39  1.00
RainSeries-3  1:40  1.00
RainSeries-3  1:41  1.00
RainSeries-3  1:42  1.00
RainSeries-3  1:43  1.00
RainSeries-3  1:44  1.00
RainSeries-3  1:45  1.00
RainSeries-3  1:46  1.00
RainSeries-3  1:47  2.00
RainSeries-3  1:48  2.00
RainSeries-3  1:49  2.00
RainSeries-3  1:50  2.00
RainSeries-3  1:51  2.00
RainSeries-3  1:52  2.00
RainSeries-3  1:53  6.00
RainSeries-3  1:54  6.00
RainSeries-3  1:55  6.00
RainSeries-3  1:56  30.00
RainSeries-3  1:57  36.00
RainSeries-3  1:58  12.00
RainSeries-3  1:59  12.00
;;
RainSeries-4  0:00  0.00
RainSeries-4  0:01  12.00
RainSeries-4  0:02  0.92
RainSeries-4  0:03  0.92
RainSeries-4  0:04  0.92
RainSeries-4  0:05  0.92
RainSeries-4  0:06  0.92
RainSeries-4  0:07  0.92
RainSeries-4  0:08  0.92
RainSeries-4  0:09  0.92
RainSeries-4  0:10  0.92
RainSeries-4  0:11  0.92
RainSeries-4  0:12  0.92
RainSeries-4  0:13  0.92
RainSeries-4  0:14  0.92
RainSeries-4  0:15  0.31
RainSeries-4  0:16  0.31
RainSeries-4  0:17  0.31
RainSeries-4  0:18  0.31
RainSeries-4  0:19  0.31
RainSeries-4  0:20  0.31
RainSeries-4  0:21  0.31
RainSeries-4  0:22  0.31
RainSeries-4  0:23  0.31
RainSeries-4  0:24  0.31
RainSeries-4  0:25  0.31
RainSeries-4  0:26  0.31
RainSeries-4  0:27  0.31
RainSeries-4  0:28  0.31
RainSeries-4  0:29  0.31
RainSeries-4  0:30  0.31
RainSeries-4  0:31  0.31
RainSeries-4  0:32  0.31
RainSeries-4  0:33  0.31
RainSeries-4  0:34  0.31
RainSeries-4  0:35  0.31
RainSeries-4  0:36  0.31
RainSeries-4  0:37  0.31
RainSeries-4  0:38  0.31
RainSeries-4  0:39  0.31
RainSeries-4  0:40  0.31
RainSeries-4  0:41  0.31
RainSeries-4  0:42  0.31
RainSeries-4  0:43  0.31
RainSeries-4  0:44  0.31
RainSeries-4  0:45  0.31
RainSeries-4  0:46  0.31
RainSeries-4  0:47  0.31
RainSeries-4  0:48  0.31
RainSeries-4  0:49  0.31
RainSeries-4  0:50  0.31
RainSeries-4  0:51  0.31
RainSeries-4  0:52  0.31
RainSeries-4  0:53  0.31
RainSeries-4  0:54  6.00
RainSeries-4  0:55  6.00
RainSeries-4  0:56  12.00
RainSeries-4  0:57  12.00
RainSeries-4  0:58  12.00
RainSeries-4  0:59  12.00
RainSeries-4  1:00  12.00
RainSeries-4  1:01  12.00
RainSeries-4  1:02  12.00
RainSeries-4  1:03  3.00
RainSeries-4  1:04  3.00
RainSeries-4  1:05  3.00
RainSeries-4  1:06  3.00
RainSeries-4  1:07  3.00
RainSeries-4  1:08  3.00
RainSeries-4  1:09  3.00
RainSeries-4  1:10  3.00
RainSeries-4  1:11  12.00
RainSeries-4  1:12  24.00
RainSeries-4  1:13  24.00
RainSeries-4  1:14  12.00
RainSeries-4  1:15  12.00
RainSeries-4  1:16  12.00
;;
RainSeries-5  0:00  0.00
RainSeries-5  0:01  12.00
RainSeries-5  0:02  12.00
RainSeries-5  0:03  24.00
RainSeries-5  0:04  24.00
RainSeries-5  0:05  36.00
RainSeries-5  0:06  60.00
RainSeries-5  0:07  36.00
RainSeries-5  0:08  12.00
RainSeries-5  0:09  36.00
RainSeries-5  0:10  36.00
RainSeries-5  0:11  12.00
RainSeries-5  0:12  12.00
RainSeries-5  0:13  4.00
RainSeries-5  0:14  4.00
RainSeries-5  0:15  4.00
RainSeries-5  0:16  4.00
RainSeries-5  0:17  4.00
RainSeries-5  0:18  4.00
RainSeries-5  0:19  24.00
RainSeries-5  0:20  60.00
RainSeries-5  0:21  24.00
RainSeries-5  0:22  24.00
RainSeries-5  0:23  24.00
RainSeries-5  0:24  12.00
RainSeries-5  0:25  12.00
RainSeries-5  0:26  24.00
RainSeries-5  0:27  12.00
RainSeries-5  0:28  12.00
RainSeries-5  0:29  12.00
RainSeries-5  0:30  12.00
RainSeries-5  0:31  36.00
RainSeries-5  0:32  36.00
RainSeries-5  0:33  48.00
RainSeries-5  0:34  60.00
RainSeries-5  0:35  60.00
RainSeries-5  0:36  48.00
RainSeries-5  0:37  24.00
RainSeries-5  0:38  24.00
RainSeries-5  0:39  36.00
RainSeries-5  0:40  48.00
RainSeries-5  0:41  36.00
RainSeries-5  0:42  6.00
RainSeries-5  0:43  6.00
RainSeries-5  0:44  12.00
RainSeries-5  0:45  6.00
RainSeries-5  0:46  18.00
RainSeries-5  0:47  24.00
RainSeries-5  0:48  24.00
RainSeries-5  0:49  12.00
RainSeries-5  0:50  12.00
RainSeries-5  0:51  6.00
RainSeries-5  0:52  6.00
RainSeries-5  0:53  6.00
RainSeries-5  0:54  6.00
RainSeries-5  0:55  6.00
RainSeries-5  0:56  6.00
RainSeries-5  0:57  4.00
RainSeries-5  0:58  4.00
RainSeries-5  0:59  4.00
RainSeries-5  1:00  6.00
RainSeries-5  1:01  6.00
RainSeries-5  1:02  12.00
RainSeries-5  1:03  12.00
RainSeries-5  1:04  12.00
RainSeries-5  1:05  6.00
RainSeries-5  1:06  6.00
RainSeries-5  1:07  6.00
RainSeries-5  1:08  6.00
RainSeries-5  1:09  3.00
RainSeries-5  1:10  3.00
RainSeries-5  1:11  3.00
RainSeries-5  1:12  3.00
RainSeries-5  1:13  2.40
RainSeries-5  1:14  2.40
RainSeries-5  1:15  2.40
RainSeries-5  1:16  2.40
RainSeries-5  1:17  2.40
RainSeries-5  1:18  1.71
RainSeries-5  1:19  1.71
RainSeries-5  1:20  1.71
RainSeries-5  1:21  1.71
RainSeries-5  1:22  1.71
RainSeries-5  1:23  1.71
RainSeries-5  1:24  1.71
;;


[RAINGAGES]
;;Name  Format   Interval  SCF  Source    
;;----- -------- --------- ---- ----------
28_RG1  INTENSITY  00:01:00  1.0  TIMESERIES  RainSeries-2


[CURVES]
;;Name           Type       X-Value    Y-Value  


[PATTERNS]
;;Name           Type       Multipliers
